C
   1.00000000000000
    17.22000000000000    0.0000000000000000   0.0000000000000000
     0.0000000000000000   17.0200000000000   0.0000000000000000
     0.0000000000000000    0.0000000000000000  10.0000000000000000
   C
   112
Direct
  0.0000000000000000  0.0000000000000000  0.0000000000000000
  0.0409999999999968  0.0716253333333299  0.0000000000000000
  0.0000000000000000  0.0477023333333335  0.0000000000000000
  0.0409999999999968  0.1193749999999980  0.0000000000000000
  0.0000000000000000  0.1432500000000019  0.0000000000000000
  0.0409999999999968  0.2148749999999993  0.0000000000000000
  0.0000000000000000  0.1909523333333354  0.0000000000000000
  0.0409999999999968  0.2626249999999999  0.0000000000000000
  0.0000000000000000  0.2864999999999966  0.0000000000000000
  0.0409999999999968  0.3581250000000011  0.0000000000000000
  0.0000000000000000  0.3342023333333302  0.0000000000000000
  0.0409999999999968  0.4058750000000018  0.0000000000000000
  0.0000000000000000  0.4297499999999985  0.0000000000000000
  0.0409999999999968  0.5013750000000030  0.0000000000000000
  0.0000000000000000  0.4774523333333320  0.0000000000000000
  0.0409999999999968  0.5491249999999965  0.0000000000000000
  0.0820000000000007  0.0000000000000000  0.0000000000000000
  0.1229999999999976  0.0716253333333299  0.0000000000000000
  0.0820000000000007  0.0477023333333335  0.0000000000000000
  0.1229999999999976  0.1193749999999980  0.0000000000000000
  0.0820000000000007  0.1432500000000019  0.0000000000000000
  0.1229999999999976  0.2148749999999993  0.0000000000000000
  0.0820000000000007  0.1909523333333354  0.0000000000000000
  0.1229999999999976  0.2626249999999999  0.0000000000000000
  0.0820000000000007  0.2864999999999966  0.0000000000000000
  0.1229999999999976  0.3581250000000011  0.0000000000000000
  0.0820000000000007  0.3342023333333302  0.0000000000000000
  0.1229999999999976  0.4058750000000018  0.0000000000000000
  0.0820000000000007  0.4297499999999985  0.0000000000000000
  0.1229999999999976  0.5013750000000030  0.0000000000000000
  0.0820000000000007  0.4774523333333320  0.0000000000000000
  0.1229999999999976  0.5491249999999965  0.0000000000000000
  0.1640000000000015  0.0000000000000000  0.0000000000000000
  0.2049999999999983  0.0716253333333299  0.0000000000000000
  0.1640000000000015  0.0477023333333335  0.0000000000000000
  0.2049999999999983  0.1193749999999980  0.0000000000000000
  0.1640000000000015  0.1432500000000019  0.0000000000000000
  0.2049999999999983  0.2148749999999993  0.0000000000000000
  0.1640000000000015  0.1909523333333354  0.0000000000000000
  0.2049999999999983  0.2626249999999999  0.0000000000000000
  0.1640000000000015  0.2864999999999966  0.0000000000000000
  0.2049999999999983  0.3581250000000011  0.0000000000000000
  0.1640000000000015  0.3342023333333302  0.0000000000000000
  0.2049999999999983  0.4058750000000018  0.0000000000000000
  0.1640000000000015  0.4297499999999985  0.0000000000000000
  0.2049999999999983  0.5013750000000030  0.0000000000000000
  0.1640000000000015  0.4774523333333320  0.0000000000000000
  0.2049999999999983  0.5491249999999965  0.0000000000000000
  0.2460000000000022  0.0000000000000000  0.0000000000000000
  0.2869999999999990  0.0716253333333299  0.0000000000000000
  0.2460000000000022  0.0477023333333335  0.0000000000000000
  0.2869999999999990  0.1193749999999980  0.0000000000000000
  0.2460000000000022  0.1432500000000019  0.0000000000000000
  0.2869999999999990  0.2148749999999993  0.0000000000000000
  0.2460000000000022  0.1909523333333354  0.0000000000000000
  0.2869999999999990  0.2626249999999999  0.0000000000000000
  0.2460000000000022  0.2864999999999966  0.0000000000000000
  0.2869999999999990  0.3581250000000011  0.0000000000000000
  0.2460000000000022  0.3342023333333302  0.0000000000000000
  0.2869999999999990  0.4058750000000018  0.0000000000000000
  0.2460000000000022  0.4297499999999985  0.0000000000000000
  0.2869999999999990  0.5013750000000030  0.0000000000000000
  0.2460000000000022  0.4774523333333320  0.0000000000000000
  0.2869999999999990  0.5491249999999965  0.0000000000000000
  0.3280000000000030  0.0000000000000000  0.0000000000000000
  0.3689999999999998  0.0716253333333299  0.0000000000000000
  0.3280000000000030  0.0477023333333335  0.0000000000000000
  0.3689999999999998  0.1193749999999980  0.0000000000000000
  0.3280000000000030  0.1432500000000019  0.0000000000000000
  0.3689999999999998  0.2148749999999993  0.0000000000000000
  0.3280000000000030  0.1909523333333354  0.0000000000000000
  0.3689999999999998  0.2626249999999999  0.0000000000000000
  0.3280000000000030  0.2864999999999966  0.0000000000000000
  0.3689999999999998  0.3581250000000011  0.0000000000000000
  0.3280000000000030  0.3342023333333302  0.0000000000000000
  0.3689999999999998  0.4058750000000018  0.0000000000000000
  0.3280000000000030  0.4297499999999985  0.0000000000000000
  0.3689999999999998  0.5013750000000030  0.0000000000000000
  0.3280000000000030  0.4774523333333320  0.0000000000000000
  0.3689999999999998  0.5491249999999965  0.0000000000000000
  0.4099999999999966  0.0000000000000000  0.0000000000000000
  0.4510000000000005  0.0716253333333299  0.0000000000000000
  0.4099999999999966  0.0477023333333335  0.0000000000000000
  0.4510000000000005  0.1193749999999980  0.0000000000000000
  0.4099999999999966  0.1432500000000019  0.0000000000000000
  0.4510000000000005  0.2148749999999993  0.0000000000000000
  0.4099999999999966  0.1909523333333354  0.0000000000000000
  0.4510000000000005  0.2626249999999999  0.0000000000000000
  0.4099999999999966  0.2864999999999966  0.0000000000000000
  0.4510000000000005  0.3581250000000011  0.0000000000000000
  0.4099999999999966  0.3342023333333302  0.0000000000000000
  0.4510000000000005  0.4058750000000018  0.0000000000000000
  0.4099999999999966  0.4297499999999985  0.0000000000000000
  0.4510000000000005  0.5013750000000030  0.0000000000000000
  0.4099999999999966  0.4774523333333320  0.0000000000000000
  0.4510000000000005  0.5491249999999965  0.0000000000000000
  0.4919999999999973  0.0000000000000000  0.0000000000000000
  0.5330000000000013  0.0716253333333299  0.0000000000000000
  0.4919999999999973  0.0477023333333335  0.0000000000000000
  0.5330000000000013  0.1193749999999980  0.0000000000000000
  0.4919999999999973  0.1432500000000019  0.0000000000000000
  0.5330000000000013  0.2148749999999993  0.0000000000000000
  0.4919999999999973  0.1909523333333354  0.0000000000000000
  0.5330000000000013  0.2626249999999999  0.0000000000000000
  0.4919999999999973  0.2864999999999966  0.0000000000000000
  0.5330000000000013  0.3581250000000011  0.0000000000000000
  0.4919999999999973  0.3342023333333302  0.0000000000000000
  0.5330000000000013  0.4058750000000018  0.0000000000000000
  0.4919999999999973  0.4297499999999985  0.0000000000000000
  0.5330000000000013  0.5013750000000030  0.0000000000000000
  0.4919999999999973  0.4774523333333320  0.0000000000000000
  0.5330000000000013  0.5491249999999965  0.0000000000000000