Sample CONTCAR file                                     
   3.28720000000000     
     5.0000000000000000    0.0000000000000000    0.0000000000000000
    -2.5000000000000000    4.3301280000000002    0.0000000000000000
     0.0000000000000000    0.0000000000000000    4.8419999999999996
   Zn   O 
   150   149
Direct
  0.0598420179712823  0.1399267697502986  0.3371504854823692
  0.1331613416187811  0.0665806908093887  0.1536202413334387
  0.0663932621544011  0.1333854979733241  0.6671281196087175
  0.1331922132041283  0.0665961266020622  0.5025738436935048
  0.0662668579871132  0.1335073638551254  0.9976763300995070
  0.1331872408688206  0.0665936404344119  0.8325432976962647
  0.0657841001226882  0.3345242704506451  0.3334751214643846
  0.1338930719919452  0.2686198618157661  0.1650264668433843
  0.0664052963133980  0.3333996613181958  0.6666556577432694
  0.1340404050626337  0.2683828407270762  0.5009009280982393
  0.0663973236014474  0.3335032459900482  0.9992178958588773
  0.1332825678794208  0.2667793497404959  0.8327874420187855
  0.0663363880998936  0.5331682590499416  0.3331135229615150
  0.1334999851048293  0.4671221553726791  0.1660607013842316
  0.0664742153320638  0.5332371726660267  0.6664851912215889
  0.1335281661821288  0.4670897221979360  0.5000392188345896
  0.0664657445854981  0.5332329372927473  0.9994681455275439
  0.1333864858886893  0.4667470759385923  0.8329156088721158
  0.0657841001226882  0.7312597596720443  0.3334751214643846
  0.1334999851048293  0.6663777297321559  0.1660607013842316
  0.0664052963133980  0.7330055649952105  0.6666556577432694
  0.1335281661821288  0.6664383439841988  0.5000392188345896
  0.0663973236014474  0.7328940076113933  0.9992178958588773
  0.1333864858886893  0.6666393099501029  0.8329156088721158
  0.0598420179712823  0.9199151782209779  0.3371504854823692
  0.1338930719919452  0.8652733101761944  0.1650264668433843
  0.0663932621544011  0.9330076941810783  0.6671281196087175
  0.1340404050626337  0.8656576643355658  0.5009009280982393
  0.0662668579871132  0.9327594241319892  0.9976763300995070
  0.1332825678794208  0.8665033181389332  0.8327874420187855
  0.2800586227400288  0.1400292613700138  0.3371684402667684
  0.3345870250763903  0.0659253219555569  0.1649964094902268
  0.2668779457850373  0.1334389228925074  0.6671139869861936
  0.3342137205337994  0.0657810813845721  0.5008856796977760
  0.2671223882799768  0.1335611441399807  0.9976529732195567
  0.3333661136844276  0.0665444663108708  0.8327741061928884
  0.2676944533216016  0.3354651668509311  0.3338191001419455
  0.3345870250763903  0.2686617731208392  0.1649964094902268
  0.2667210936730370  0.3335190749280757  0.6667442792952425
  0.3342137205337994  0.2684327091492331  0.5008856796977760
  0.2668167610503085  0.3337016667746207  0.9990904366798485
  0.3333661136844276  0.2668217173735555  0.8327741061928884
  0.2667795010606769  0.5337599550445539  0.3331578263286238
  0.3336789786284573  0.4674647929092332  0.1659965021084496
  0.2666205430097123  0.5333771902827578  0.6664975607113478
  0.3336604836011205  0.4674151864294078  0.5000923248175329
  0.2666374280269915  0.5333926688017366  0.9994788446473727
  0.3333853995949639  0.4668674031778637  0.8328933042130896
  0.2667795010606769  0.7330195460161087  0.3331578263286238
  0.3334866874805902  0.6667432937402946  0.1662004059692547
  0.2666205430097123  0.7332433527269474  0.6664975607113478
  0.3334762167817380  0.6667380583908683  0.4998754049227496
  0.2666374280269915  0.7332447592252478  0.9994788446473727
  0.3333849635173131  0.6666924317586559  0.8329172030768226
  0.2676944533216016  0.9322291864706694  0.3338191001419455
  0.3336789786284573  0.8662141857192242  0.1659965021084496
  0.2667210936730370  0.9332019187449673  0.6667442792952425
  0.3336604836011205  0.8662452971717198  0.5000923248175329
  0.2668167610503085  0.9331149942756796  0.9990904366798485
  0.3333853995949639  0.8665179964171144  0.8328933042130896
  0.4687463268991135  0.1341146469544334  0.3334535115657169
  0.5336446202901064  0.0664106684839764  0.1660482136183098
  0.4670209579082203  0.1335042927814429  0.6666381989290383
  0.5335843574895842  0.0663750468320431  0.5000333859866501
  0.4671377730933336  0.1335036202803092  0.9991971922315508
  0.5333902866848649  0.0665257483579810  0.8329168614295421
  0.4687463268991135  0.3346316799446801  0.3334535115657169
  0.5339344194880227  0.2669672097440220  0.1660177727727157
  0.4670209579082203  0.3335166651267703  0.6666381989290383
  0.5338642355402277  0.2669321177701209  0.5001648808255665
  0.4671377730933336  0.3336341528130101  0.9991971922315508
  0.5334042369104092  0.2667021184552010  0.8329174779853539
  0.4670379853261715  0.5338224179294720  0.3331641698307595
  0.5336446202901064  0.4672338218061334  0.1660482136183098
  0.4668187104095982  0.5334471500631344  0.6664990603061310
  0.5335843574895842  0.4672091806575446  0.5000333859866501
  0.4668329596442490  0.5334651517947401  0.9994747098867623
  0.5333902866848649  0.4668644083268873  0.8329168614295421
  0.4667515843082498  0.7333757921541179  0.3330703403594252
  0.5332985835087124  0.6668169858967349  0.1662065870908827
  0.4667590400231240  0.7333795200115585  0.6664471715576633
  0.5333020115685558  0.6668034525518909  0.4998967785894881
  0.4667664902369333  0.7333832451184632  0.9995473656385515
  0.5333612547316500  0.6667757593558490  0.8329324268974871
  0.4670379853261715  0.9332156673966935  0.3331641698307595
  0.5332985835087124  0.8664814976119836  0.1662065870908827
  0.4668187104095982  0.9333716603464578  0.6664990603061310
  0.5333020115685558  0.8664984590166777  0.4998967785894881
  0.4668329596442490  0.9333679078495031  0.9994747098867623
  0.5333612547316500  0.8665853953758068  0.8329324268974871
  0.6668482523654449  0.1335697761807835  0.3331085447571072
  0.7329211626765343  0.0664209267253336  0.1660692095341620
  0.6667905823173610  0.1334434051490075  0.6664902609410001
  0.7329506113023596  0.0663915892750615  0.5000579937593094
  0.6667735765065138  0.1334298719629340  0.9994661787788768
  0.7332846865951528  0.0665295725786839  0.8329329470375857
  0.6671614600775070  0.3335807300387499  0.3330961312263812
  0.7334146426699638  0.2666782944889736  0.1662114492602372
  0.6668378646632633  0.3334189323316352  0.6664693456875185
  0.7334128008645728  0.2666611846844980  0.4999326468200204
  0.6668484042841452  0.3334242021420726  0.9994517267818022
  0.7333843120703233  0.2666182197735834  0.8329550129461643
  0.6668482523654449  0.5332785761846555  0.3331085447571072
  0.7334146426699638  0.4667363481809975  0.1662114492602372
  0.6667905823173610  0.5333472771683408  0.6664902609410001
  0.7334128008645728  0.4667516161800821  0.4999326468200204
  0.6667735765065138  0.5333438045435811  0.9994661787788768
  0.7333843120703233  0.4667660922967469  0.8329550129461643
  0.6663302813338391  0.7331042343413069  0.3331781756505260
  0.7329211626765343  0.6665002059511983  0.1660692095341620
  0.6667019374332361  0.7333237307021258  0.6665204120818594
  0.7329506113023596  0.6665589920272957  0.5000579937593094
  0.6666791623140378  0.7333105124732936  0.9994920658997386
  0.7332846865951528  0.6667550840164663  0.8329329470375857
  0.6663302813338391  0.9332260469925251  0.3331781756505260
  0.7326130755393236  0.8663065877696624  0.1660297282349121
  0.6667019374332361  0.9333782067311099  0.6665204120818594
  0.7326702749930716  0.8663351874965364  0.5001356354906613
  0.6666791623140378  0.9333686498407514  0.9994920658997386
  0.7332063829274050  0.8666032414637064  0.8329140409390750
  0.8653711037904355  0.1340457581985534  0.3334925577975528
  0.9313165454750052  0.0659616580980653  0.1650325503715618
  0.8664810591109902  0.1334294265906528  0.6666696427668114
  0.9315379366602832  0.0658147855322516  0.5009207984530069
  0.8663573148901755  0.1334266155792619  0.9992285608707588
  0.9331215709238009  0.0665608184067692  0.8328082872697830
  0.8664043776804206  0.3335062210817939  0.3331017632396054
  0.9330546672089788  0.2668987555942968  0.1660421768884146
  0.8665660241997524  0.3333384277898260  0.6664858185124183
  0.9330914373783422  0.2668576040981710  0.5001880990129572
  0.8665641002828161  0.3333453057053856  0.9994666897193253
  0.9333057500485037  0.2666273014848242  0.8329349084512191
  0.8664043776804206  0.5328981565986196  0.3331017632396054
  0.9333425010365840  0.4666712005182879  0.1662140035926990
  0.8665660241997524  0.5332275964099262  0.6664858185124183
  0.9333651771484820  0.4666825385742440  0.4999300253876083
  0.8665641002828161  0.5332187945774235  0.9994666897193253
  0.9333923783314998  0.4666961391657529  0.8329527882612420
  0.8653711037904355  0.7313252455918738  0.3334925577975528
  0.9330546672089788  0.6661559116146892  0.1660421768884146
  0.8664810591109902  0.7330515325203288  0.6666696427668114
  0.9330914373783422  0.6662338332801711  0.5001880990129572
  0.8663573148901755  0.7329305993109052  0.9992285608707588
  0.9333057500485037  0.6666784485636723  0.8329349084512191
  0.8644987461324087  0.9322493230662005  0.3338600108486781
  0.9313165454750052  0.8653549573769455  0.1650325503715618
  0.8664157906567741  0.9332078453283899  0.6667740642291270
  0.9315379366602832  0.8657232211280443  0.5009207984530069
  0.8662161294161227  0.9331080147080570  0.9991266262018136
  0.9331215709238009  0.8665608225170233  0.8328082872697830
  0.0670967425504442  0.1328641015470822  0.1281080258939132
  0.0672431189827847  0.1327334500044029  0.4586889591452432
  0.1331800505815910  0.0665900452907900  0.6266470763994494
  0.0667117975897672  0.1331342993915758  0.7933090110091204
  0.1331657615106881  0.0665829007553457  0.9604296254110851
  0.0670216509176955  0.3332379105438730  0.1266347588052282
  0.1333859022291688  0.2649992656340135  0.2927772079420808
  0.0671293127881244  0.3330810895201829  0.4594589142890832
  0.1328965369371584  0.2657263955570711  0.6262956152181127
  0.0671239097438356  0.3332228549750150  0.7931573751392195
  0.1329094184344826  0.2657712482160297  0.9601451829822004
  0.0673007115998670  0.5336504207999317  0.1266354082619374
  0.1327972624613853  0.4659273192839340  0.2931104253725855
  0.0673084070187127  0.5336542685093513  0.4595794763011969
  0.1327268634014255  0.4659945256896174  0.6263517137995149
  0.0673351439672483  0.5336676369836258  0.7931248520922645
  0.1327306232095229  0.4660414360794470  0.9599173425226414
  0.0670216509176955  0.7337836703738168  0.1266347588052282
  0.1327972624613853  0.6668698431774571  0.2931104253725855
  0.0671293127881244  0.7340481532679355  0.4594589142890832
  0.1327268634014255  0.6667322377118140  0.6263517137995149
  0.0671239097438356  0.7339009847688222  0.7931573751392195
  0.1327306232095229  0.6666890871300891  0.9599173425226414
  0.0670967425504442  0.9342325710033704  0.1281080258939132
  0.1333859022291688  0.8683867365951563  0.2927772079420808
  0.0672431189827847  0.9345095989783759  0.4586889591452432
  0.1328965369371584  0.8671702413800955  0.6262956152181127
  0.0667117975897672  0.9335774281981927  0.7933090110091204
  0.1329094184344826  0.8671382702184611  0.9601451829822004
  0.2653776267628515  0.1326887633814287  0.1280880375771251
  0.3319714046384832  0.0667237803046464  0.2927953947780139
  0.2650364159427487  0.1325181579713702  0.4587048069973803
  0.3331467582395054  0.0671544836975503  0.6263068613534987
  0.2658718711285170  0.1329358855642543  0.7933269817276553
  0.3331742116918076  0.0671346563823346  0.9601420351366232
  0.2662589508454586  0.3332769212082986  0.1266113578466341
  0.3319714046384832  0.2652476943338283  0.2927953947780139
  0.2662078112265296  0.3331474254781304  0.4596195409957076
  0.3331467582395054  0.2659923445419607  0.6263068613534987
  0.2661925162181628  0.3331380782599883  0.7931793578660000
  0.3331742116918076  0.2660396253094858  0.9601420351366232
  0.2666334669100169  0.5333400225027133  0.1265971293682690
  0.3333412300839740  0.4661171546396515  0.2930472294085352
  0.2666506111048351  0.5333150695720759  0.4595634971490394
  0.3332257534741879  0.4659310147211860  0.6263905295323010
  0.2666917129265137  0.5333609707519659  0.7931013773612212
  0.3332772695811774  0.4659975758534778  0.9598943666582526
  0.2666334669100169  0.7332934444072965  0.1265971293682690
  0.3332778699267312  0.6666388849633685  0.2931286132658986
  0.2666506111048351  0.7333355415327526  0.4595634971490394
  0.3332849068017133  0.6666424034008490  0.6263620136151499
  0.2666917129265137  0.7333307421745409  0.7931013773612212
  0.3332576653008599  0.6666287826504258  0.9599275183969987
  0.2662589508454586  0.9329819296371589  0.1266113578466341
  0.3333412300839740  0.8672240754443297  0.2930472294085352
  0.2662078112265296  0.9330602857483911  0.4596195409957076
  0.3332257534741879  0.8672947387530019  0.6263905295323010
  0.2661925162181628  0.9330543379581805  0.7931793578660000
  0.3332772695811774  0.8672796937277136  0.9598943666582526
  0.4661044716015526  0.1328630698849087  0.1266654634917243
  0.5333816371903267  0.0672518912466300  0.2930781014339783
  0.4658527956051323  0.1327727801217047  0.4595167032130412
  0.5335840322286804  0.0673631959943684  0.6263539151988877
  0.4659451313180316  0.1327384191807040  0.7932013143292639
  0.5335651787754053  0.0672949020995777  0.9599005429190215
  0.4661044716015526  0.3332414017166368  0.1266654634917243
  0.5330713120919214  0.2665356560459642  0.2930756641358227
  0.4658527956051323  0.3330800154834206  0.4595167032130412
  0.5333275141131881  0.2666637570565941  0.6263352701780280
  0.4659451313180316  0.3332067121373205  0.7932013143292639
  0.5333390697778839  0.2666695348889491  0.9598864425689474
  0.4662747491965869  0.5335117507634515  0.1266255775044897
  0.5333816371903267  0.4661296159437002  0.2930781014339783
  0.4662617185645137  0.5334734056729660  0.4596024706080383
  0.5335840322286804  0.4662207062343156  0.6263539151988877
  0.4662723303971703  0.5335184406699389  0.7931262475339861
  0.5335651787754053  0.4662701466758312  0.9599005429190215
  0.4664702436781281  0.7332351218390605  0.1265649694265883
  0.5338885172591444  0.6666498501351592  0.2931332129686157
  0.4664731622023239  0.7332365811011585  0.4595998203538208
  0.5338995227042828  0.6666354528677325  0.6263762452023502
  0.4664712895581552  0.7332356447790704  0.7930967628647200
  0.5339040595295484  0.6666464092405113  0.9598875011490552
  0.4662747491965869  0.9327630984331295  0.1266255775044897
  0.5338885172591444  0.8672385671239983  0.2931332129686157
  0.4662617185645137  0.9327884128915419  0.4596024706080383
  0.5338995227042828  0.8672639698365492  0.6263762452023502
  0.4662723303971703  0.9327539897272257  0.7931262475339861
  0.5339040595295484  0.8672575502890360  0.9598875011490552
  0.6666481500445036  0.1327993062867387  0.1266467814833512
  0.7339876571828570  0.0670591585546639  0.2930688234748729
  0.6666409133389548  0.1327655957100736  0.4595850576353382
  0.7338630448808587  0.0671200555099801  0.6263133686721337
  0.6666315831822648  0.1327894651181300  0.7931638860558815
  0.7338024206861274  0.0670904429741553  0.9598818121920032
  0.6666160367301934  0.3333080183650967  0.1266179878473227
  0.7332186422376886  0.2666650011740644  0.2930794577316196
  0.6666006596761013  0.3333003298380506  0.4596162224065125
  0.7332607808135294  0.2667283335407221  0.6263222830034777
  0.6665798045461517  0.3332899022730759  0.7931726395236969
  0.7332559290859572  0.2667163305690806  0.9598425454177336
  0.6666481500445036  0.5338489437577659  0.1266467814833512
  0.7332186422376886  0.4665536410636313  0.2930794577316196
  0.6666409133389548  0.5338754176288681  0.4595850576353382
  0.7332607808135294  0.4665324472728143  0.6263222830034777
  0.6666315831822648  0.5338422180641359  0.7931638860558815
  0.7332559290859572  0.4665395985168838  0.9598425454177336
  0.6667391859225845  0.7337168225255278  0.1266104294498531
  0.7339876571828570  0.6669284686281906  0.2930688234748729
  0.6667829919498649  0.7337649290100449  0.4595969852182144
  0.7338630448808587  0.6667429593708761  0.6263133686721337
  0.6667237942629959  0.7337365180376932  0.7931223753864443
  0.7338024206861274  0.6667119477119767  0.9598818121920032
  0.6667391859225845  0.9330223633970566  0.1266104294498531
  0.7340914718429274  0.8670457859214643  0.2930329353653015
  0.6667829919498649  0.9330180629398200  0.4595969852182144
  0.7341811668417892  0.8670906334209025  0.6263834708651641
  0.6667237942629959  0.9329872762252955  0.7931223753864443
  0.7341261926865360  0.8670631463432756  0.9598514759740060
  0.8671091988257317  0.1330962372129298  0.1266365590162799
  0.9346801469390462  0.0663563475333676  0.2927833330825284
  0.8673071461707160  0.1330020769362776  0.4594592641003307
  0.9337196147527688  0.0667119651478042  0.6262875493279341
  0.8670980877240863  0.1329591355588817  0.7931559758684940
  0.9336675375144461  0.0667192465970117  0.9601386540930206
  0.8672231920521363  0.3333066756929419  0.1266059092492019
  0.9331421752450687  0.2661228454473951  0.2930856589311923
  0.8672726449130107  0.3333139707816755  0.4595971872811142
  0.9330234756946195  0.2662196357225986  0.6263214073880238
  0.8672528880124776  0.3332968518802500  0.7931610428862353
  0.9329985751129817  0.2662239034088310  0.9598803439360815
  0.8672231920521363  0.5339165163591874  0.1266059092492019
  0.9327552225298709  0.4663775612649384  0.2930864634574423
  0.8672726449130107  0.5339586741313281  0.4595971872811142
  0.9326952073299426  0.4663475536649707  0.6263636950349114
  0.8672528880124776  0.5339560361322278  0.7931610428862353
  0.9327380372093353  0.4663689686046706  0.9598818145311422
  0.8671091988257317  0.7340128616127862  0.1266365590162799
  0.9331421752450687  0.6670193297976738  0.2930856589311923
  0.8673071461707160  0.7343049692344303  0.4594592641003307
  0.9330234756946195  0.6668038399720210  0.6263214073880238
  0.8670980877240863  0.7341388521652032  0.7931559758684940
  0.9329985751129817  0.6667746717041577  0.9598803439360815
  0.8668888648416346  0.9334443824208202  0.1265988900465876
  0.9346801469390462  0.8683238694056704  0.2927833330825284
  0.8670406009173919  0.9335202504586918  0.4596194528669680
  0.9337196147527688  0.8670077196049560  0.6262875493279341
  0.8670293083243548  0.9335146041621767  0.7931885319675041
  0.9336675375144461  0.8669483609174402  0.9601386540930206
 
  0.00000000E+00  0.00000000E+00  0.00000000E+00
  0.00000000E+00  0.00000000E+00  0.00000000E+00
  0.00000000E+00  0.00000000E+00  0.00000000E+00
  0.00000000E+00  0.00000000E+00  0.00000000E+00
  0.00000000E+00  0.00000000E+00  0.00000000E+00
  0.00000000E+00  0.00000000E+00  0.00000000E+00
  0.00000000E+00  0.00000000E+00  0.00000000E+00
  0.00000000E+00  0.00000000E+00  0.00000000E+00
  0.00000000E+00  0.00000000E+00  0.00000000E+00
  0.00000000E+00  0.00000000E+00  0.00000000E+00
  0.00000000E+00  0.00000000E+00  0.00000000E+00
  0.00000000E+00  0.00000000E+00  0.00000000E+00
  0.00000000E+00  0.00000000E+00  0.00000000E+00
  0.00000000E+00  0.00000000E+00  0.00000000E+00
  0.00000000E+00  0.00000000E+00  0.00000000E+00
  0.00000000E+00  0.00000000E+00  0.00000000E+00
  0.00000000E+00  0.00000000E+00  0.00000000E+00
  0.00000000E+00  0.00000000E+00  0.00000000E+00
  0.00000000E+00  0.00000000E+00  0.00000000E+00
  0.00000000E+00  0.00000000E+00  0.00000000E+00
  0.00000000E+00  0.00000000E+00  0.00000000E+00
  0.00000000E+00  0.00000000E+00  0.00000000E+00
  0.00000000E+00  0.00000000E+00  0.00000000E+00
  0.00000000E+00  0.00000000E+00  0.00000000E+00
  0.00000000E+00  0.00000000E+00  0.00000000E+00
  0.00000000E+00  0.00000000E+00  0.00000000E+00
  0.00000000E+00  0.00000000E+00  0.00000000E+00
  0.00000000E+00  0.00000000E+00  0.00000000E+00
  0.00000000E+00  0.00000000E+00  0.00000000E+00
  0.00000000E+00  0.00000000E+00  0.00000000E+00
  0.00000000E+00  0.00000000E+00  0.00000000E+00
  0.00000000E+00  0.00000000E+00  0.00000000E+00
  0.00000000E+00  0.00000000E+00  0.00000000E+00
  0.00000000E+00  0.00000000E+00  0.00000000E+00
  0.00000000E+00  0.00000000E+00  0.00000000E+00
  0.00000000E+00  0.00000000E+00  0.00000000E+00
  0.00000000E+00  0.00000000E+00  0.00000000E+00
  0.00000000E+00  0.00000000E+00  0.00000000E+00
  0.00000000E+00  0.00000000E+00  0.00000000E+00
  0.00000000E+00  0.00000000E+00  0.00000000E+00
  0.00000000E+00  0.00000000E+00  0.00000000E+00
  0.00000000E+00  0.00000000E+00  0.00000000E+00
  0.00000000E+00  0.00000000E+00  0.00000000E+00
  0.00000000E+00  0.00000000E+00  0.00000000E+00
  0.00000000E+00  0.00000000E+00  0.00000000E+00
  0.00000000E+00  0.00000000E+00  0.00000000E+00
  0.00000000E+00  0.00000000E+00  0.00000000E+00
  0.00000000E+00  0.00000000E+00  0.00000000E+00
  0.00000000E+00  0.00000000E+00  0.00000000E+00
  0.00000000E+00  0.00000000E+00  0.00000000E+00
  0.00000000E+00  0.00000000E+00  0.00000000E+00
  0.00000000E+00  0.00000000E+00  0.00000000E+00
  0.00000000E+00  0.00000000E+00  0.00000000E+00
  0.00000000E+00  0.00000000E+00  0.00000000E+00
  0.00000000E+00  0.00000000E+00  0.00000000E+00
  0.00000000E+00  0.00000000E+00  0.00000000E+00
  0.00000000E+00  0.00000000E+00  0.00000000E+00
  0.00000000E+00  0.00000000E+00  0.00000000E+00
  0.00000000E+00  0.00000000E+00  0.00000000E+00
  0.00000000E+00  0.00000000E+00  0.00000000E+00
  0.00000000E+00  0.00000000E+00  0.00000000E+00
  0.00000000E+00  0.00000000E+00  0.00000000E+00
  0.00000000E+00  0.00000000E+00  0.00000000E+00
  0.00000000E+00  0.00000000E+00  0.00000000E+00
  0.00000000E+00  0.00000000E+00  0.00000000E+00
  0.00000000E+00  0.00000000E+00  0.00000000E+00
  0.00000000E+00  0.00000000E+00  0.00000000E+00
  0.00000000E+00  0.00000000E+00  0.00000000E+00
  0.00000000E+00  0.00000000E+00  0.00000000E+00
  0.00000000E+00  0.00000000E+00  0.00000000E+00
  0.00000000E+00  0.00000000E+00  0.00000000E+00
  0.00000000E+00  0.00000000E+00  0.00000000E+00
  0.00000000E+00  0.00000000E+00  0.00000000E+00
  0.00000000E+00  0.00000000E+00  0.00000000E+00
  0.00000000E+00  0.00000000E+00  0.00000000E+00
  0.00000000E+00  0.00000000E+00  0.00000000E+00
  0.00000000E+00  0.00000000E+00  0.00000000E+00
  0.00000000E+00  0.00000000E+00  0.00000000E+00
  0.00000000E+00  0.00000000E+00  0.00000000E+00
  0.00000000E+00  0.00000000E+00  0.00000000E+00
  0.00000000E+00  0.00000000E+00  0.00000000E+00
  0.00000000E+00  0.00000000E+00  0.00000000E+00
  0.00000000E+00  0.00000000E+00  0.00000000E+00
  0.00000000E+00  0.00000000E+00  0.00000000E+00
  0.00000000E+00  0.00000000E+00  0.00000000E+00
  0.00000000E+00  0.00000000E+00  0.00000000E+00
  0.00000000E+00  0.00000000E+00  0.00000000E+00
  0.00000000E+00  0.00000000E+00  0.00000000E+00
  0.00000000E+00  0.00000000E+00  0.00000000E+00
  0.00000000E+00  0.00000000E+00  0.00000000E+00
  0.00000000E+00  0.00000000E+00  0.00000000E+00
  0.00000000E+00  0.00000000E+00  0.00000000E+00
  0.00000000E+00  0.00000000E+00  0.00000000E+00
  0.00000000E+00  0.00000000E+00  0.00000000E+00
  0.00000000E+00  0.00000000E+00  0.00000000E+00
  0.00000000E+00  0.00000000E+00  0.00000000E+00
  0.00000000E+00  0.00000000E+00  0.00000000E+00
  0.00000000E+00  0.00000000E+00  0.00000000E+00
  0.00000000E+00  0.00000000E+00  0.00000000E+00
  0.00000000E+00  0.00000000E+00  0.00000000E+00
  0.00000000E+00  0.00000000E+00  0.00000000E+00
  0.00000000E+00  0.00000000E+00  0.00000000E+00
  0.00000000E+00  0.00000000E+00  0.00000000E+00
  0.00000000E+00  0.00000000E+00  0.00000000E+00
  0.00000000E+00  0.00000000E+00  0.00000000E+00
  0.00000000E+00  0.00000000E+00  0.00000000E+00
  0.00000000E+00  0.00000000E+00  0.00000000E+00
  0.00000000E+00  0.00000000E+00  0.00000000E+00
  0.00000000E+00  0.00000000E+00  0.00000000E+00
  0.00000000E+00  0.00000000E+00  0.00000000E+00
  0.00000000E+00  0.00000000E+00  0.00000000E+00
  0.00000000E+00  0.00000000E+00  0.00000000E+00
  0.00000000E+00  0.00000000E+00  0.00000000E+00
  0.00000000E+00  0.00000000E+00  0.00000000E+00
  0.00000000E+00  0.00000000E+00  0.00000000E+00
  0.00000000E+00  0.00000000E+00  0.00000000E+00
  0.00000000E+00  0.00000000E+00  0.00000000E+00
  0.00000000E+00  0.00000000E+00  0.00000000E+00
  0.00000000E+00  0.00000000E+00  0.00000000E+00
  0.00000000E+00  0.00000000E+00  0.00000000E+00
  0.00000000E+00  0.00000000E+00  0.00000000E+00
  0.00000000E+00  0.00000000E+00  0.00000000E+00
  0.00000000E+00  0.00000000E+00  0.00000000E+00
  0.00000000E+00  0.00000000E+00  0.00000000E+00
  0.00000000E+00  0.00000000E+00  0.00000000E+00
  0.00000000E+00  0.00000000E+00  0.00000000E+00
  0.00000000E+00  0.00000000E+00  0.00000000E+00
  0.00000000E+00  0.00000000E+00  0.00000000E+00
  0.00000000E+00  0.00000000E+00  0.00000000E+00
  0.00000000E+00  0.00000000E+00  0.00000000E+00
  0.00000000E+00  0.00000000E+00  0.00000000E+00
  0.00000000E+00  0.00000000E+00  0.00000000E+00
  0.00000000E+00  0.00000000E+00  0.00000000E+00
  0.00000000E+00  0.00000000E+00  0.00000000E+00
  0.00000000E+00  0.00000000E+00  0.00000000E+00
  0.00000000E+00  0.00000000E+00  0.00000000E+00
  0.00000000E+00  0.00000000E+00  0.00000000E+00
  0.00000000E+00  0.00000000E+00  0.00000000E+00
  0.00000000E+00  0.00000000E+00  0.00000000E+00
  0.00000000E+00  0.00000000E+00  0.00000000E+00
  0.00000000E+00  0.00000000E+00  0.00000000E+00
  0.00000000E+00  0.00000000E+00  0.00000000E+00
  0.00000000E+00  0.00000000E+00  0.00000000E+00
  0.00000000E+00  0.00000000E+00  0.00000000E+00
  0.00000000E+00  0.00000000E+00  0.00000000E+00
  0.00000000E+00  0.00000000E+00  0.00000000E+00
  0.00000000E+00  0.00000000E+00  0.00000000E+00
  0.00000000E+00  0.00000000E+00  0.00000000E+00
  0.00000000E+00  0.00000000E+00  0.00000000E+00
  0.00000000E+00  0.00000000E+00  0.00000000E+00
  0.00000000E+00  0.00000000E+00  0.00000000E+00
  0.00000000E+00  0.00000000E+00  0.00000000E+00
  0.00000000E+00  0.00000000E+00  0.00000000E+00
  0.00000000E+00  0.00000000E+00  0.00000000E+00
  0.00000000E+00  0.00000000E+00  0.00000000E+00
  0.00000000E+00  0.00000000E+00  0.00000000E+00
  0.00000000E+00  0.00000000E+00  0.00000000E+00
  0.00000000E+00  0.00000000E+00  0.00000000E+00
  0.00000000E+00  0.00000000E+00  0.00000000E+00
  0.00000000E+00  0.00000000E+00  0.00000000E+00
  0.00000000E+00  0.00000000E+00  0.00000000E+00
  0.00000000E+00  0.00000000E+00  0.00000000E+00
  0.00000000E+00  0.00000000E+00  0.00000000E+00
  0.00000000E+00  0.00000000E+00  0.00000000E+00
  0.00000000E+00  0.00000000E+00  0.00000000E+00
  0.00000000E+00  0.00000000E+00  0.00000000E+00
  0.00000000E+00  0.00000000E+00  0.00000000E+00
  0.00000000E+00  0.00000000E+00  0.00000000E+00
  0.00000000E+00  0.00000000E+00  0.00000000E+00
  0.00000000E+00  0.00000000E+00  0.00000000E+00
  0.00000000E+00  0.00000000E+00  0.00000000E+00
  0.00000000E+00  0.00000000E+00  0.00000000E+00
  0.00000000E+00  0.00000000E+00  0.00000000E+00
  0.00000000E+00  0.00000000E+00  0.00000000E+00
  0.00000000E+00  0.00000000E+00  0.00000000E+00
  0.00000000E+00  0.00000000E+00  0.00000000E+00
  0.00000000E+00  0.00000000E+00  0.00000000E+00
  0.00000000E+00  0.00000000E+00  0.00000000E+00
  0.00000000E+00  0.00000000E+00  0.00000000E+00
  0.00000000E+00  0.00000000E+00  0.00000000E+00
  0.00000000E+00  0.00000000E+00  0.00000000E+00
  0.00000000E+00  0.00000000E+00  0.00000000E+00
  0.00000000E+00  0.00000000E+00  0.00000000E+00
  0.00000000E+00  0.00000000E+00  0.00000000E+00
  0.00000000E+00  0.00000000E+00  0.00000000E+00
  0.00000000E+00  0.00000000E+00  0.00000000E+00
  0.00000000E+00  0.00000000E+00  0.00000000E+00
  0.00000000E+00  0.00000000E+00  0.00000000E+00
  0.00000000E+00  0.00000000E+00  0.00000000E+00
  0.00000000E+00  0.00000000E+00  0.00000000E+00
  0.00000000E+00  0.00000000E+00  0.00000000E+00
  0.00000000E+00  0.00000000E+00  0.00000000E+00
  0.00000000E+00  0.00000000E+00  0.00000000E+00
  0.00000000E+00  0.00000000E+00  0.00000000E+00
  0.00000000E+00  0.00000000E+00  0.00000000E+00
  0.00000000E+00  0.00000000E+00  0.00000000E+00
  0.00000000E+00  0.00000000E+00  0.00000000E+00
  0.00000000E+00  0.00000000E+00  0.00000000E+00
  0.00000000E+00  0.00000000E+00  0.00000000E+00
  0.00000000E+00  0.00000000E+00  0.00000000E+00
  0.00000000E+00  0.00000000E+00  0.00000000E+00
  0.00000000E+00  0.00000000E+00  0.00000000E+00
  0.00000000E+00  0.00000000E+00  0.00000000E+00
  0.00000000E+00  0.00000000E+00  0.00000000E+00
  0.00000000E+00  0.00000000E+00  0.00000000E+00
  0.00000000E+00  0.00000000E+00  0.00000000E+00
  0.00000000E+00  0.00000000E+00  0.00000000E+00
  0.00000000E+00  0.00000000E+00  0.00000000E+00
  0.00000000E+00  0.00000000E+00  0.00000000E+00
  0.00000000E+00  0.00000000E+00  0.00000000E+00
  0.00000000E+00  0.00000000E+00  0.00000000E+00
  0.00000000E+00  0.00000000E+00  0.00000000E+00
  0.00000000E+00  0.00000000E+00  0.00000000E+00
  0.00000000E+00  0.00000000E+00  0.00000000E+00
  0.00000000E+00  0.00000000E+00  0.00000000E+00
  0.00000000E+00  0.00000000E+00  0.00000000E+00
  0.00000000E+00  0.00000000E+00  0.00000000E+00
  0.00000000E+00  0.00000000E+00  0.00000000E+00
  0.00000000E+00  0.00000000E+00  0.00000000E+00
  0.00000000E+00  0.00000000E+00  0.00000000E+00
  0.00000000E+00  0.00000000E+00  0.00000000E+00
  0.00000000E+00  0.00000000E+00  0.00000000E+00
  0.00000000E+00  0.00000000E+00  0.00000000E+00
  0.00000000E+00  0.00000000E+00  0.00000000E+00
  0.00000000E+00  0.00000000E+00  0.00000000E+00
  0.00000000E+00  0.00000000E+00  0.00000000E+00
  0.00000000E+00  0.00000000E+00  0.00000000E+00
  0.00000000E+00  0.00000000E+00  0.00000000E+00
  0.00000000E+00  0.00000000E+00  0.00000000E+00
  0.00000000E+00  0.00000000E+00  0.00000000E+00
  0.00000000E+00  0.00000000E+00  0.00000000E+00
  0.00000000E+00  0.00000000E+00  0.00000000E+00
  0.00000000E+00  0.00000000E+00  0.00000000E+00